p td 50 75
16 49
16 0
16 10
49 0
49 3
21 47
21 42
21 41
47 7
47 45
7 33
7 2
37 43
37 36
37 32
43 28
43 27
36 33
36 20
12 32
12 41
12 25
32 46
30 41
30 5
30 17
33 5
1 15
1 2
1 23
15 18
15 17
6 35
6 17
6 0
35 25
35 5
3 28
3 44
28 48
42 11
42 29
22 40
22 14
22 27
40 14
40 4
9 18
9 19
9 11
18 46
26 39
26 44
26 20
39 20
39 8
44 24
11 38
38 45
38 19
27 29
29 8
14 31
2 13
31 46
31 48
13 25
13 23
48 24
19 10
8 10
4 23
4 34
24 34
34 45
